results_rootrelaxation/bin024_050_001.srr.sol
solution status: optimal solution found
objective value:                                    0
_var2994_                           0.131153440297568 	(obj:0)
_var5085_                          0.0149254986860222 	(obj:0)
_var7014_                          0.0741965829181395 	(obj:0)
_var7015_                          0.0827086243655084 	(obj:0)
_var7026_                           0.151402488868348 	(obj:0)
_var7029_                           0.102066326734746 	(obj:0)
_var7031_                           0.048551873463717 	(obj:0)
_var7032_                          0.0526492296659656 	(obj:0)
_var7038_                           0.138791203197512 	(obj:0)
_var7049_                           0.117957457727516 	(obj:0)
_var7061_                           0.178841439686223 	(obj:0)
_var7064_                           0.260793818621303 	(obj:0)
_var7075_                           0.148719715345187 	(obj:0)
_var7080_                           0.160859127056343 	(obj:0)
_var7085_                          0.0162454747913936 	(obj:0)
_var7086_                           0.239210165877439 	(obj:0)
_var7093_                           0.269556735672588 	(obj:0)
_var7100_                          0.0735604483171321 	(obj:0)
_var7102_                          0.0491154662754001 	(obj:0)
_var7103_                           0.110731968378009 	(obj:0)
_var7106_                           0.173086598316493 	(obj:0)
_var7107_                           0.105610368425314 	(obj:0)
_var7108_                           0.244318612233706 	(obj:0)
_var7109_                           0.355844856242107 	(obj:0)
_var7110_                           0.063915349032047 	(obj:0)
_var7114_                           0.053934347363353 	(obj:0)
_var7118_                          0.0372339463198348 	(obj:0)
_var7119_                          0.0563257644931364 	(obj:0)
_var7122_                           0.166277584748467 	(obj:0)
_var7123_                          0.0028432855449889 	(obj:0)
_var7127_                           0.102569294472803 	(obj:0)
_var7129_                           0.120740880695071 	(obj:0)
_var7131_                           0.261750346841417 	(obj:0)
_var7132_                         0.000909065985488663 	(obj:0)
_var7134_                           0.045195565184305 	(obj:0)
_var7137_                            0.18756969737089 	(obj:0)
_var7140_                           0.212724970342203 	(obj:0)
_var7141_                           0.151126151182734 	(obj:0)
_var7142_                           0.122545453923535 	(obj:0)
_var7145_                           0.177255187519769 	(obj:0)
_var7146_                          0.0885309048300528 	(obj:0)
_var7147_                           0.279160904470799 	(obj:0)
_var7149_                         0.00761244819595508 	(obj:0)
_var7157_                           0.138672090256308 	(obj:0)
_var7159_                           0.261491770037443 	(obj:0)
_var7160_                          0.0967349204448313 	(obj:0)
_var7161_                          0.0910257044670572 	(obj:0)
_var7162_                           0.135266269613472 	(obj:0)
_var7163_                          0.0236014439644534 	(obj:0)
_var7167_                           0.056336706874309 	(obj:0)
_var7168_                          0.0331334316375485 	(obj:0)
_var7170_                           0.174477081744141 	(obj:0)
_var7171_                          0.0495799727123112 	(obj:0)
_var7174_                          0.0990841633282622 	(obj:0)
_var7180_                            0.14926857218817 	(obj:0)
_var7189_                          0.0483378485215806 	(obj:0)
_var7194_                           0.129785524438605 	(obj:0)
_var7198_                            0.08575111571339 	(obj:0)
_var7199_                            0.11631006353517 	(obj:0)
_var7200_                           0.190031936536543 	(obj:0)
_var7201_                          0.0651537884194358 	(obj:0)
_var7205_                          0.0107290093286451 	(obj:0)
_var7208_                           0.174220922529687 	(obj:0)
_var7214_                          0.0652540978466766 	(obj:0)
_var7215_                          0.0515901021037651 	(obj:0)
_var7221_                          0.0276982302812415 	(obj:0)
_var7223_                          0.0239067690890922 	(obj:0)
_var7226_                          0.0528113288980739 	(obj:0)
_var7227_                           0.150583232615837 	(obj:0)
_var7229_                          0.0168768821359354 	(obj:0)
_var7230_                          0.0223327925862475 	(obj:0)
_var7231_                          0.0539430125614094 	(obj:0)
_var7232_                          0.0408029960801598 	(obj:0)
_var7233_                          0.0247061469367005 	(obj:0)
_var7237_                          0.0310961479017892 	(obj:0)
_var7251_                           0.133260626725951 	(obj:0)
_var7253_                           0.267258342270565 	(obj:0)
_var7254_                           0.118677467296741 	(obj:0)
_var7255_                          0.0680828676750037 	(obj:0)
_var7261_                           0.218709417392037 	(obj:0)
_var7262_                          0.0316121308241999 	(obj:0)
_var7263_                          0.0750547844231272 	(obj:0)
_var7264_                           0.099166015207673 	(obj:0)
_var7271_                           0.173577409928105 	(obj:0)
_var7273_                          0.0719781196429971 	(obj:0)
_var7279_                           0.159481484006026 	(obj:0)
_var7284_                           0.109089550930853 	(obj:0)
_var7290_                          0.0592927106251614 	(obj:0)
_var7292_                            0.15190655777668 	(obj:0)
_var7294_                           0.138470165943416 	(obj:0)
_var7297_                          0.0194620252900721 	(obj:0)
_var7300_                          0.0299683373709442 	(obj:0)
_var7301_                           0.186185338910089 	(obj:0)
_var7303_                            0.12864440648482 	(obj:0)
_var7304_                          0.0201208887951302 	(obj:0)
_var7305_                           0.119796890794924 	(obj:0)
_var7306_                           0.240053188266449 	(obj:0)
_var7307_                         0.00697131006754624 	(obj:0)
_var7310_                          0.0612685004202329 	(obj:0)
_var7312_                           0.075888676623333 	(obj:0)
_var7316_                          0.0274673345626428 	(obj:0)
_var7321_                          0.0448650912645992 	(obj:0)
_var7323_                          0.0386097536849036 	(obj:0)
_var7325_                          0.0857311233709993 	(obj:0)
_var7326_                           0.136137945832271 	(obj:0)
_var7327_                           0.238837753093943 	(obj:0)
_var7328_                           0.105786854741645 	(obj:0)
_var7329_                           0.129713316728032 	(obj:0)
_var7331_                          0.0123482389569871 	(obj:0)
_var7332_                           0.305764778232519 	(obj:0)
_var7333_                           0.117836470224045 	(obj:0)
_var7336_                           0.119023195586673 	(obj:0)
_var7337_                           0.147597857406365 	(obj:0)
_var7338_                           0.111840302731168 	(obj:0)
_var7340_                          0.0237609517891113 	(obj:0)
_var7342_                           0.146944471377164 	(obj:0)
_var7344_                           0.110615822046331 	(obj:0)
_var7351_                           0.137957102084484 	(obj:0)
_var7356_                          0.0821694792803966 	(obj:0)
_var7358_                           0.159958027073285 	(obj:0)
_var7362_                           0.139009758324363 	(obj:0)
_var7363_                          0.0323248277579776 	(obj:0)
_var7365_                          0.0809478755639568 	(obj:0)
_var7366_                          0.0862733915725755 	(obj:0)
_var7367_                           0.056739784502749 	(obj:0)
_var7370_                          0.0266495146679615 	(obj:0)
_var7371_                           0.106081676175759 	(obj:0)
_var7373_                           0.185634563527862 	(obj:0)
_var7375_                          0.0357487431226773 	(obj:0)
_var7377_                          0.0379633118366504 	(obj:0)
_var7379_                            0.12916246616777 	(obj:0)
_var7381_                         0.00608845855547124 	(obj:0)
_var7383_                          0.0448433090992263 	(obj:0)
_var7387_                           0.157621929197782 	(obj:0)
_var7388_                          0.0969344246597088 	(obj:0)
_var7390_                          0.0714087918865899 	(obj:0)
_var7391_                          0.0646347904511105 	(obj:0)
_var7393_                          0.0816160356233552 	(obj:0)
_var7394_                          0.0459294516818398 	(obj:0)
_var7396_                          0.0659597945381938 	(obj:0)
_var7397_                         0.00244610863496757 	(obj:0)
_var7399_                           0.118972266769465 	(obj:0)
_var7400_                         0.00916622925777537 	(obj:0)
_var7401_                          0.0425364147760335 	(obj:0)
_var7402_                          0.0947573473257964 	(obj:0)
_var7404_                           0.318321863053207 	(obj:0)
_var7405_                          0.0117231101366971 	(obj:0)
_var7406_                          0.0118763558834554 	(obj:0)
_var7410_                           0.119663126274542 	(obj:0)
_var7411_                          0.0610748517558431 	(obj:0)
_var7412_                           0.229449752714592 	(obj:0)
_var7413_                          0.0369043568632335 	(obj:0)
_var7414_                           0.134532098939817 	(obj:0)
_var7417_                          0.0416648183081216 	(obj:0)
_var7418_                           0.195741051313162 	(obj:0)
_var7420_                           0.066405503953231 	(obj:0)
_var7423_                          0.0909155183104676 	(obj:0)
_var7424_                           0.042477578045094 	(obj:0)
_var7425_                         0.00839037883986714 	(obj:0)
_var7427_                           0.154663692623897 	(obj:0)
_var7428_                          0.0904144336564668 	(obj:0)
_var7429_                         0.00715533587606993 	(obj:0)
_var7431_                          0.0274006589463251 	(obj:0)
_var7432_                          0.0112107244512759 	(obj:0)
_var7433_                          0.0449410402801382 	(obj:0)
_var7434_                            0.10984253355062 	(obj:0)
_var7435_                           0.034239266919361 	(obj:0)
_var7437_                           0.107320790856005 	(obj:0)
_var7440_                         0.00191809932269595 	(obj:0)
_var7441_                          0.0965126624511779 	(obj:0)
_var7442_                           0.202602850051088 	(obj:0)
_var7443_                           0.207815812859462 	(obj:0)
_var7445_                          0.0773835938112855 	(obj:0)
_var7446_                          0.0612980501798091 	(obj:0)
_var7447_                          0.0339492613136541 	(obj:0)
_var7448_                          0.0694208993394894 	(obj:0)
_var7449_                           0.090866025886055 	(obj:0)
_var7451_                           0.123026454165047 	(obj:0)
_var7452_                          0.0544079142213573 	(obj:0)
_var7455_                          0.0527426469635207 	(obj:0)
_var7460_                          0.0850852936653605 	(obj:0)
_var7462_                           0.166120253522686 	(obj:0)
_var7464_                          0.0193853450737953 	(obj:0)
_var7465_                          0.0586925539215726 	(obj:0)
_var7467_                          0.0392538356159391 	(obj:0)
_var7470_                           0.143530190114371 	(obj:0)
_var7472_                           0.326074119315766 	(obj:0)
_var7474_                          0.0279719807461331 	(obj:0)
_var7475_                          0.0249915238458686 	(obj:0)
_var7477_                            0.01194247973283 	(obj:0)
_var7479_                          0.0388765647977365 	(obj:0)
_var7480_                           0.177025453934817 	(obj:0)
_var7481_                          0.0627232175399791 	(obj:0)
_var7482_                          0.0342435562440663 	(obj:0)
_var7483_                          0.0420922933593764 	(obj:0)
_var7484_                          0.0533270138983194 	(obj:0)
_var7485_                          0.0144456255883303 	(obj:0)
_var7487_                          0.0713086480338114 	(obj:0)
_var7488_                           0.129655257945754 	(obj:0)
_var7490_                          0.0316535059204227 	(obj:0)
_var7491_                           0.149763688321733 	(obj:0)
_var7495_                          0.0288133159862186 	(obj:0)
_var7496_                           0.021821603487525 	(obj:0)
_var7498_                          0.0212633761871532 	(obj:0)
_var7501_                          0.0756010950779784 	(obj:0)
_var7503_                          0.0341215123979892 	(obj:0)
_var7504_                          0.0991870851453204 	(obj:0)
_var7505_                          0.0667715666610106 	(obj:0)
_var7506_                          0.0902724242631713 	(obj:0)
_var7508_                          0.0398972203989752 	(obj:0)
_var7510_                           0.135367124715103 	(obj:0)
_var7511_                          0.0156486909724382 	(obj:0)
_var7512_                          0.0526689779770383 	(obj:0)
_var7514_                          0.0111790903753344 	(obj:0)
_var7515_                          0.0411741772522681 	(obj:0)
_var7516_                          0.0694224421364869 	(obj:0)
_var7517_                          0.0092836765665828 	(obj:0)
_var7518_                           0.136212575428332 	(obj:0)
_var7519_                          0.0831991751242821 	(obj:0)
_var7520_                           0.064653046134461 	(obj:0)
_var7521_                         0.00183348447845553 	(obj:0)
_var7523_                          0.0195348319319849 	(obj:0)
_var7524_                          0.0201018888120631 	(obj:0)
_var7525_                          0.0118300155781248 	(obj:0)
_var7526_                          0.0470257407755534 	(obj:0)
_var7527_                            0.03701664916751 	(obj:0)
_var7528_                          0.0920830911395773 	(obj:0)
_var7529_                          0.0795553019030857 	(obj:0)
_var7530_                           0.113801183035391 	(obj:0)
_var7531_                           0.021670330494305 	(obj:0)
_var7532_                          0.0426449287854056 	(obj:0)
_var7538_                           0.109023197294533 	(obj:0)
_var7540_                         0.00317769912119064 	(obj:0)
_var7541_                           0.094792787722557 	(obj:0)
_var7543_                          0.0219116448152081 	(obj:0)
_var7544_                          0.0637691437923228 	(obj:0)
_var7546_                          0.0470765716843768 	(obj:0)
_var7547_                          0.0618993525421621 	(obj:0)
_var7548_                          0.0292286556183028 	(obj:0)
_var7551_                          0.0395530238847064 	(obj:0)
_var7554_                          0.0386163356553901 	(obj:0)
_var7557_                           0.026408779738666 	(obj:0)
_var7559_                          0.0505609606922287 	(obj:0)
_var7561_                          0.0633701042947993 	(obj:0)
_var7563_                         0.00277507759935451 	(obj:0)
_var7564_                          0.0413038197446731 	(obj:0)
_var7566_                         0.000510016209814931 	(obj:0)
_var7569_                          0.0515249896069847 	(obj:0)
_var7571_                          0.0112633137811186 	(obj:0)
_var7573_                          0.0252573403329795 	(obj:0)
_var7574_                          0.0916990681921272 	(obj:0)
_var7577_                          0.0701500979144282 	(obj:0)
_var7578_                           0.034122227314019 	(obj:0)
_var7584_                           0.034074810795687 	(obj:0)
_var7585_                          0.0530962765397537 	(obj:0)
_var7586_                          0.0306700145962695 	(obj:0)
_var7587_                          0.0570196160413419 	(obj:0)
_var7588_                          0.0809743401307378 	(obj:0)
_var7593_                          0.0856017690810382 	(obj:0)
_var7594_                          0.0673046085262686 	(obj:0)
_var7595_                          0.0235217837255131 	(obj:0)
_var7599_                          0.0126293043365432 	(obj:0)
_var7600_                         0.00943696916265717 	(obj:0)
_var7602_                          0.0380315976791891 	(obj:0)
_var7606_                          0.0192541109805936 	(obj:0)
_var7607_                         0.00276701511591351 	(obj:0)
_var7610_                           0.101175318319743 	(obj:0)
_var7617_                         0.00216974912156272 	(obj:0)
_var7619_                         0.000909865225571261 	(obj:0)
_var7621_                          0.0158901672382071 	(obj:0)
_var7626_                          0.0081010188937716 	(obj:0)
_var7629_                          0.0236003570914852 	(obj:0)
_var7631_                         0.00568731099264555 	(obj:0)
_var7632_                          0.0127184316810243 	(obj:0)
_var7633_                          0.0211731270825131 	(obj:0)
